c *********************************
c * Circuit generated by BenCGen
c *
c * CarryLookaheadBlock_50_50_50_InOutT
c *
c * Ports with 1 gate(s): 2
c * Ports with 2 gate(s): 214
c * Ports with 3 gate(s): 50
c * Ports with 4 gate(s): 36
c * Ports with 5 gate(s): 24
c * Total gates: 326
c *********************************
p cnf 426 1270
1 153 0
-1 -153 0
1 -152 0
153 -152 0
-1 -153 152 0
1 51 -154 0
-1 51 154 0
1 -51 154 0
-1 -51 -154 0
1 -204 0
51 -204 0
-1 -51 204 0
2 52 -155 0
-2 52 155 0
2 -52 155 0
-2 -52 -155 0
2 -205 0
52 -205 0
-2 -52 205 0
3 53 -156 0
-3 53 156 0
3 -53 156 0
-3 -53 -156 0
3 -206 0
53 -206 0
-3 -53 206 0
4 54 -157 0
-4 54 157 0
4 -54 157 0
-4 -54 -157 0
4 -207 0
54 -207 0
-4 -54 207 0
5 55 -158 0
-5 55 158 0
5 -55 158 0
-5 -55 -158 0
5 -208 0
55 -208 0
-5 -55 208 0
6 56 -159 0
-6 56 159 0
6 -56 159 0
-6 -56 -159 0
6 -209 0
56 -209 0
-6 -56 209 0
7 57 -160 0
-7 57 160 0
7 -57 160 0
-7 -57 -160 0
7 -210 0
57 -210 0
-7 -57 210 0
8 58 -161 0
-8 58 161 0
8 -58 161 0
-8 -58 -161 0
8 -211 0
58 -211 0
-8 -58 211 0
9 59 -162 0
-9 59 162 0
9 -59 162 0
-9 -59 -162 0
9 -212 0
59 -212 0
-9 -59 212 0
10 60 -163 0
-10 60 163 0
10 -60 163 0
-10 -60 -163 0
10 -213 0
60 -213 0
-10 -60 213 0
11 61 -164 0
-11 61 164 0
11 -61 164 0
-11 -61 -164 0
11 -214 0
61 -214 0
-11 -61 214 0
12 62 -165 0
-12 62 165 0
12 -62 165 0
-12 -62 -165 0
12 -215 0
62 -215 0
-12 -62 215 0
13 63 -166 0
-13 63 166 0
13 -63 166 0
-13 -63 -166 0
13 -216 0
63 -216 0
-13 -63 216 0
14 64 -167 0
-14 64 167 0
14 -64 167 0
-14 -64 -167 0
14 -217 0
64 -217 0
-14 -64 217 0
15 65 -168 0
-15 65 168 0
15 -65 168 0
-15 -65 -168 0
15 -218 0
65 -218 0
-15 -65 218 0
16 66 -169 0
-16 66 169 0
16 -66 169 0
-16 -66 -169 0
16 -219 0
66 -219 0
-16 -66 219 0
17 67 -170 0
-17 67 170 0
17 -67 170 0
-17 -67 -170 0
17 -220 0
67 -220 0
-17 -67 220 0
18 68 -171 0
-18 68 171 0
18 -68 171 0
-18 -68 -171 0
18 -221 0
68 -221 0
-18 -68 221 0
19 69 -172 0
-19 69 172 0
19 -69 172 0
-19 -69 -172 0
19 -222 0
69 -222 0
-19 -69 222 0
20 70 -173 0
-20 70 173 0
20 -70 173 0
-20 -70 -173 0
20 -223 0
70 -223 0
-20 -70 223 0
21 71 -174 0
-21 71 174 0
21 -71 174 0
-21 -71 -174 0
21 -224 0
71 -224 0
-21 -71 224 0
22 72 -175 0
-22 72 175 0
22 -72 175 0
-22 -72 -175 0
22 -225 0
72 -225 0
-22 -72 225 0
23 73 -176 0
-23 73 176 0
23 -73 176 0
-23 -73 -176 0
23 -226 0
73 -226 0
-23 -73 226 0
24 74 -177 0
-24 74 177 0
24 -74 177 0
-24 -74 -177 0
24 -227 0
74 -227 0
-24 -74 227 0
25 75 -178 0
-25 75 178 0
25 -75 178 0
-25 -75 -178 0
25 -228 0
75 -228 0
-25 -75 228 0
26 76 -179 0
-26 76 179 0
26 -76 179 0
-26 -76 -179 0
26 -229 0
76 -229 0
-26 -76 229 0
27 77 -180 0
-27 77 180 0
27 -77 180 0
-27 -77 -180 0
27 -230 0
77 -230 0
-27 -77 230 0
28 78 -181 0
-28 78 181 0
28 -78 181 0
-28 -78 -181 0
28 -231 0
78 -231 0
-28 -78 231 0
29 79 -182 0
-29 79 182 0
29 -79 182 0
-29 -79 -182 0
29 -232 0
79 -232 0
-29 -79 232 0
30 80 -183 0
-30 80 183 0
30 -80 183 0
-30 -80 -183 0
30 -233 0
80 -233 0
-30 -80 233 0
31 81 -184 0
-31 81 184 0
31 -81 184 0
-31 -81 -184 0
31 -234 0
81 -234 0
-31 -81 234 0
32 82 -185 0
-32 82 185 0
32 -82 185 0
-32 -82 -185 0
32 -235 0
82 -235 0
-32 -82 235 0
33 83 -186 0
-33 83 186 0
33 -83 186 0
-33 -83 -186 0
33 -236 0
83 -236 0
-33 -83 236 0
34 84 -187 0
-34 84 187 0
34 -84 187 0
-34 -84 -187 0
34 -237 0
84 -237 0
-34 -84 237 0
35 85 -188 0
-35 85 188 0
35 -85 188 0
-35 -85 -188 0
35 -238 0
85 -238 0
-35 -85 238 0
36 86 -189 0
-36 86 189 0
36 -86 189 0
-36 -86 -189 0
36 -239 0
86 -239 0
-36 -86 239 0
37 87 -190 0
-37 87 190 0
37 -87 190 0
-37 -87 -190 0
37 -240 0
87 -240 0
-37 -87 240 0
38 88 -191 0
-38 88 191 0
38 -88 191 0
-38 -88 -191 0
38 -241 0
88 -241 0
-38 -88 241 0
39 89 -192 0
-39 89 192 0
39 -89 192 0
-39 -89 -192 0
39 -242 0
89 -242 0
-39 -89 242 0
40 90 -193 0
-40 90 193 0
40 -90 193 0
-40 -90 -193 0
40 -243 0
90 -243 0
-40 -90 243 0
41 91 -194 0
-41 91 194 0
41 -91 194 0
-41 -91 -194 0
41 -244 0
91 -244 0
-41 -91 244 0
42 92 -195 0
-42 92 195 0
42 -92 195 0
-42 -92 -195 0
42 -245 0
92 -245 0
-42 -92 245 0
43 93 -196 0
-43 93 196 0
43 -93 196 0
-43 -93 -196 0
43 -246 0
93 -246 0
-43 -93 246 0
44 94 -197 0
-44 94 197 0
44 -94 197 0
-44 -94 -197 0
44 -247 0
94 -247 0
-44 -94 247 0
45 95 -198 0
-45 95 198 0
45 -95 198 0
-45 -95 -198 0
45 -248 0
95 -248 0
-45 -95 248 0
46 96 -199 0
-46 96 199 0
46 -96 199 0
-46 -96 -199 0
46 -249 0
96 -249 0
-46 -96 249 0
47 97 -200 0
-47 97 200 0
47 -97 200 0
-47 -97 -200 0
47 -250 0
97 -250 0
-47 -97 250 0
48 98 -201 0
-48 98 201 0
48 -98 201 0
-48 -98 -201 0
48 -251 0
98 -251 0
-48 -98 251 0
49 99 -202 0
-49 99 202 0
49 -99 202 0
-49 -99 -202 0
49 -252 0
99 -252 0
-49 -99 252 0
50 100 -203 0
-50 100 203 0
50 -100 203 0
-50 -100 -203 0
50 -253 0
100 -253 0
-50 -100 253 0
152 -304 0
154 -304 0
-152 -154 304 0
152 -305 0
154 -305 0
155 -305 0
-152 -154 -155 305 0
204 -306 0
155 -306 0
-204 -155 306 0
152 -307 0
154 -307 0
155 -307 0
156 -307 0
-152 -154 -155 -156 307 0
204 -308 0
155 -308 0
156 -308 0
-204 -155 -156 308 0
205 -309 0
156 -309 0
-205 -156 309 0
152 -310 0
154 -310 0
155 -310 0
156 -310 0
157 -310 0
-152 -154 -155 -156 -157 310 0
204 -311 0
155 -311 0
156 -311 0
157 -311 0
-204 -155 -156 -157 311 0
205 -312 0
156 -312 0
157 -312 0
-205 -156 -157 312 0
206 -313 0
157 -313 0
-206 -157 313 0
-204 254 0
-304 254 0
204 304 -254 0
-205 255 0
-305 255 0
-306 255 0
205 305 306 -255 0
-206 256 0
-307 256 0
-308 256 0
-309 256 0
206 307 308 309 -256 0
-207 257 0
-310 257 0
-311 257 0
-312 257 0
-313 257 0
207 310 311 312 313 -257 0
257 -314 0
158 -314 0
-257 -158 314 0
257 -315 0
158 -315 0
159 -315 0
-257 -158 -159 315 0
208 -316 0
159 -316 0
-208 -159 316 0
257 -317 0
158 -317 0
159 -317 0
160 -317 0
-257 -158 -159 -160 317 0
208 -318 0
159 -318 0
160 -318 0
-208 -159 -160 318 0
209 -319 0
160 -319 0
-209 -160 319 0
257 -320 0
158 -320 0
159 -320 0
160 -320 0
161 -320 0
-257 -158 -159 -160 -161 320 0
208 -321 0
159 -321 0
160 -321 0
161 -321 0
-208 -159 -160 -161 321 0
209 -322 0
160 -322 0
161 -322 0
-209 -160 -161 322 0
210 -323 0
161 -323 0
-210 -161 323 0
-208 258 0
-314 258 0
208 314 -258 0
-209 259 0
-315 259 0
-316 259 0
209 315 316 -259 0
-210 260 0
-317 260 0
-318 260 0
-319 260 0
210 317 318 319 -260 0
-211 261 0
-320 261 0
-321 261 0
-322 261 0
-323 261 0
211 320 321 322 323 -261 0
261 -324 0
162 -324 0
-261 -162 324 0
261 -325 0
162 -325 0
163 -325 0
-261 -162 -163 325 0
212 -326 0
163 -326 0
-212 -163 326 0
261 -327 0
162 -327 0
163 -327 0
164 -327 0
-261 -162 -163 -164 327 0
212 -328 0
163 -328 0
164 -328 0
-212 -163 -164 328 0
213 -329 0
164 -329 0
-213 -164 329 0
261 -330 0
162 -330 0
163 -330 0
164 -330 0
165 -330 0
-261 -162 -163 -164 -165 330 0
212 -331 0
163 -331 0
164 -331 0
165 -331 0
-212 -163 -164 -165 331 0
213 -332 0
164 -332 0
165 -332 0
-213 -164 -165 332 0
214 -333 0
165 -333 0
-214 -165 333 0
-212 262 0
-324 262 0
212 324 -262 0
-213 263 0
-325 263 0
-326 263 0
213 325 326 -263 0
-214 264 0
-327 264 0
-328 264 0
-329 264 0
214 327 328 329 -264 0
-215 265 0
-330 265 0
-331 265 0
-332 265 0
-333 265 0
215 330 331 332 333 -265 0
265 -334 0
166 -334 0
-265 -166 334 0
265 -335 0
166 -335 0
167 -335 0
-265 -166 -167 335 0
216 -336 0
167 -336 0
-216 -167 336 0
265 -337 0
166 -337 0
167 -337 0
168 -337 0
-265 -166 -167 -168 337 0
216 -338 0
167 -338 0
168 -338 0
-216 -167 -168 338 0
217 -339 0
168 -339 0
-217 -168 339 0
265 -340 0
166 -340 0
167 -340 0
168 -340 0
169 -340 0
-265 -166 -167 -168 -169 340 0
216 -341 0
167 -341 0
168 -341 0
169 -341 0
-216 -167 -168 -169 341 0
217 -342 0
168 -342 0
169 -342 0
-217 -168 -169 342 0
218 -343 0
169 -343 0
-218 -169 343 0
-216 266 0
-334 266 0
216 334 -266 0
-217 267 0
-335 267 0
-336 267 0
217 335 336 -267 0
-218 268 0
-337 268 0
-338 268 0
-339 268 0
218 337 338 339 -268 0
-219 269 0
-340 269 0
-341 269 0
-342 269 0
-343 269 0
219 340 341 342 343 -269 0
269 -344 0
170 -344 0
-269 -170 344 0
269 -345 0
170 -345 0
171 -345 0
-269 -170 -171 345 0
220 -346 0
171 -346 0
-220 -171 346 0
269 -347 0
170 -347 0
171 -347 0
172 -347 0
-269 -170 -171 -172 347 0
220 -348 0
171 -348 0
172 -348 0
-220 -171 -172 348 0
221 -349 0
172 -349 0
-221 -172 349 0
269 -350 0
170 -350 0
171 -350 0
172 -350 0
173 -350 0
-269 -170 -171 -172 -173 350 0
220 -351 0
171 -351 0
172 -351 0
173 -351 0
-220 -171 -172 -173 351 0
221 -352 0
172 -352 0
173 -352 0
-221 -172 -173 352 0
222 -353 0
173 -353 0
-222 -173 353 0
-220 270 0
-344 270 0
220 344 -270 0
-221 271 0
-345 271 0
-346 271 0
221 345 346 -271 0
-222 272 0
-347 272 0
-348 272 0
-349 272 0
222 347 348 349 -272 0
-223 273 0
-350 273 0
-351 273 0
-352 273 0
-353 273 0
223 350 351 352 353 -273 0
273 -354 0
174 -354 0
-273 -174 354 0
273 -355 0
174 -355 0
175 -355 0
-273 -174 -175 355 0
224 -356 0
175 -356 0
-224 -175 356 0
273 -357 0
174 -357 0
175 -357 0
176 -357 0
-273 -174 -175 -176 357 0
224 -358 0
175 -358 0
176 -358 0
-224 -175 -176 358 0
225 -359 0
176 -359 0
-225 -176 359 0
273 -360 0
174 -360 0
175 -360 0
176 -360 0
177 -360 0
-273 -174 -175 -176 -177 360 0
224 -361 0
175 -361 0
176 -361 0
177 -361 0
-224 -175 -176 -177 361 0
225 -362 0
176 -362 0
177 -362 0
-225 -176 -177 362 0
226 -363 0
177 -363 0
-226 -177 363 0
-224 274 0
-354 274 0
224 354 -274 0
-225 275 0
-355 275 0
-356 275 0
225 355 356 -275 0
-226 276 0
-357 276 0
-358 276 0
-359 276 0
226 357 358 359 -276 0
-227 277 0
-360 277 0
-361 277 0
-362 277 0
-363 277 0
227 360 361 362 363 -277 0
277 -364 0
178 -364 0
-277 -178 364 0
277 -365 0
178 -365 0
179 -365 0
-277 -178 -179 365 0
228 -366 0
179 -366 0
-228 -179 366 0
277 -367 0
178 -367 0
179 -367 0
180 -367 0
-277 -178 -179 -180 367 0
228 -368 0
179 -368 0
180 -368 0
-228 -179 -180 368 0
229 -369 0
180 -369 0
-229 -180 369 0
277 -370 0
178 -370 0
179 -370 0
180 -370 0
181 -370 0
-277 -178 -179 -180 -181 370 0
228 -371 0
179 -371 0
180 -371 0
181 -371 0
-228 -179 -180 -181 371 0
229 -372 0
180 -372 0
181 -372 0
-229 -180 -181 372 0
230 -373 0
181 -373 0
-230 -181 373 0
-228 278 0
-364 278 0
228 364 -278 0
-229 279 0
-365 279 0
-366 279 0
229 365 366 -279 0
-230 280 0
-367 280 0
-368 280 0
-369 280 0
230 367 368 369 -280 0
-231 281 0
-370 281 0
-371 281 0
-372 281 0
-373 281 0
231 370 371 372 373 -281 0
281 -374 0
182 -374 0
-281 -182 374 0
281 -375 0
182 -375 0
183 -375 0
-281 -182 -183 375 0
232 -376 0
183 -376 0
-232 -183 376 0
281 -377 0
182 -377 0
183 -377 0
184 -377 0
-281 -182 -183 -184 377 0
232 -378 0
183 -378 0
184 -378 0
-232 -183 -184 378 0
233 -379 0
184 -379 0
-233 -184 379 0
281 -380 0
182 -380 0
183 -380 0
184 -380 0
185 -380 0
-281 -182 -183 -184 -185 380 0
232 -381 0
183 -381 0
184 -381 0
185 -381 0
-232 -183 -184 -185 381 0
233 -382 0
184 -382 0
185 -382 0
-233 -184 -185 382 0
234 -383 0
185 -383 0
-234 -185 383 0
-232 282 0
-374 282 0
232 374 -282 0
-233 283 0
-375 283 0
-376 283 0
233 375 376 -283 0
-234 284 0
-377 284 0
-378 284 0
-379 284 0
234 377 378 379 -284 0
-235 285 0
-380 285 0
-381 285 0
-382 285 0
-383 285 0
235 380 381 382 383 -285 0
285 -384 0
186 -384 0
-285 -186 384 0
285 -385 0
186 -385 0
187 -385 0
-285 -186 -187 385 0
236 -386 0
187 -386 0
-236 -187 386 0
285 -387 0
186 -387 0
187 -387 0
188 -387 0
-285 -186 -187 -188 387 0
236 -388 0
187 -388 0
188 -388 0
-236 -187 -188 388 0
237 -389 0
188 -389 0
-237 -188 389 0
285 -390 0
186 -390 0
187 -390 0
188 -390 0
189 -390 0
-285 -186 -187 -188 -189 390 0
236 -391 0
187 -391 0
188 -391 0
189 -391 0
-236 -187 -188 -189 391 0
237 -392 0
188 -392 0
189 -392 0
-237 -188 -189 392 0
238 -393 0
189 -393 0
-238 -189 393 0
-236 286 0
-384 286 0
236 384 -286 0
-237 287 0
-385 287 0
-386 287 0
237 385 386 -287 0
-238 288 0
-387 288 0
-388 288 0
-389 288 0
238 387 388 389 -288 0
-239 289 0
-390 289 0
-391 289 0
-392 289 0
-393 289 0
239 390 391 392 393 -289 0
289 -394 0
190 -394 0
-289 -190 394 0
289 -395 0
190 -395 0
191 -395 0
-289 -190 -191 395 0
240 -396 0
191 -396 0
-240 -191 396 0
289 -397 0
190 -397 0
191 -397 0
192 -397 0
-289 -190 -191 -192 397 0
240 -398 0
191 -398 0
192 -398 0
-240 -191 -192 398 0
241 -399 0
192 -399 0
-241 -192 399 0
289 -400 0
190 -400 0
191 -400 0
192 -400 0
193 -400 0
-289 -190 -191 -192 -193 400 0
240 -401 0
191 -401 0
192 -401 0
193 -401 0
-240 -191 -192 -193 401 0
241 -402 0
192 -402 0
193 -402 0
-241 -192 -193 402 0
242 -403 0
193 -403 0
-242 -193 403 0
-240 290 0
-394 290 0
240 394 -290 0
-241 291 0
-395 291 0
-396 291 0
241 395 396 -291 0
-242 292 0
-397 292 0
-398 292 0
-399 292 0
242 397 398 399 -292 0
-243 293 0
-400 293 0
-401 293 0
-402 293 0
-403 293 0
243 400 401 402 403 -293 0
293 -404 0
194 -404 0
-293 -194 404 0
293 -405 0
194 -405 0
195 -405 0
-293 -194 -195 405 0
244 -406 0
195 -406 0
-244 -195 406 0
293 -407 0
194 -407 0
195 -407 0
196 -407 0
-293 -194 -195 -196 407 0
244 -408 0
195 -408 0
196 -408 0
-244 -195 -196 408 0
245 -409 0
196 -409 0
-245 -196 409 0
293 -410 0
194 -410 0
195 -410 0
196 -410 0
197 -410 0
-293 -194 -195 -196 -197 410 0
244 -411 0
195 -411 0
196 -411 0
197 -411 0
-244 -195 -196 -197 411 0
245 -412 0
196 -412 0
197 -412 0
-245 -196 -197 412 0
246 -413 0
197 -413 0
-246 -197 413 0
-244 294 0
-404 294 0
244 404 -294 0
-245 295 0
-405 295 0
-406 295 0
245 405 406 -295 0
-246 296 0
-407 296 0
-408 296 0
-409 296 0
246 407 408 409 -296 0
-247 297 0
-410 297 0
-411 297 0
-412 297 0
-413 297 0
247 410 411 412 413 -297 0
297 -414 0
198 -414 0
-297 -198 414 0
297 -415 0
198 -415 0
199 -415 0
-297 -198 -199 415 0
248 -416 0
199 -416 0
-248 -199 416 0
297 -417 0
198 -417 0
199 -417 0
200 -417 0
-297 -198 -199 -200 417 0
248 -418 0
199 -418 0
200 -418 0
-248 -199 -200 418 0
249 -419 0
200 -419 0
-249 -200 419 0
297 -420 0
198 -420 0
199 -420 0
200 -420 0
201 -420 0
-297 -198 -199 -200 -201 420 0
248 -421 0
199 -421 0
200 -421 0
201 -421 0
-248 -199 -200 -201 421 0
249 -422 0
200 -422 0
201 -422 0
-249 -200 -201 422 0
250 -423 0
201 -423 0
-250 -201 423 0
-248 298 0
-414 298 0
248 414 -298 0
-249 299 0
-415 299 0
-416 299 0
249 415 416 -299 0
-250 300 0
-417 300 0
-418 300 0
-419 300 0
250 417 418 419 -300 0
-251 301 0
-420 301 0
-421 301 0
-422 301 0
-423 301 0
251 420 421 422 423 -301 0
301 -424 0
202 -424 0
-301 -202 424 0
301 -425 0
202 -425 0
203 -425 0
-301 -202 -203 425 0
252 -426 0
203 -426 0
-252 -203 426 0
-252 302 0
-424 302 0
252 424 -302 0
-253 303 0
-425 303 0
-426 303 0
253 425 426 -303 0
154 152 -101 0
-154 152 101 0
154 -152 101 0
-154 -152 -101 0
155 254 -102 0
-155 254 102 0
155 -254 102 0
-155 -254 -102 0
156 255 -103 0
-156 255 103 0
156 -255 103 0
-156 -255 -103 0
157 256 -104 0
-157 256 104 0
157 -256 104 0
-157 -256 -104 0
158 257 -105 0
-158 257 105 0
158 -257 105 0
-158 -257 -105 0
159 258 -106 0
-159 258 106 0
159 -258 106 0
-159 -258 -106 0
160 259 -107 0
-160 259 107 0
160 -259 107 0
-160 -259 -107 0
161 260 -108 0
-161 260 108 0
161 -260 108 0
-161 -260 -108 0
162 261 -109 0
-162 261 109 0
162 -261 109 0
-162 -261 -109 0
163 262 -110 0
-163 262 110 0
163 -262 110 0
-163 -262 -110 0
164 263 -111 0
-164 263 111 0
164 -263 111 0
-164 -263 -111 0
165 264 -112 0
-165 264 112 0
165 -264 112 0
-165 -264 -112 0
166 265 -113 0
-166 265 113 0
166 -265 113 0
-166 -265 -113 0
167 266 -114 0
-167 266 114 0
167 -266 114 0
-167 -266 -114 0
168 267 -115 0
-168 267 115 0
168 -267 115 0
-168 -267 -115 0
169 268 -116 0
-169 268 116 0
169 -268 116 0
-169 -268 -116 0
170 269 -117 0
-170 269 117 0
170 -269 117 0
-170 -269 -117 0
171 270 -118 0
-171 270 118 0
171 -270 118 0
-171 -270 -118 0
172 271 -119 0
-172 271 119 0
172 -271 119 0
-172 -271 -119 0
173 272 -120 0
-173 272 120 0
173 -272 120 0
-173 -272 -120 0
174 273 -121 0
-174 273 121 0
174 -273 121 0
-174 -273 -121 0
175 274 -122 0
-175 274 122 0
175 -274 122 0
-175 -274 -122 0
176 275 -123 0
-176 275 123 0
176 -275 123 0
-176 -275 -123 0
177 276 -124 0
-177 276 124 0
177 -276 124 0
-177 -276 -124 0
178 277 -125 0
-178 277 125 0
178 -277 125 0
-178 -277 -125 0
179 278 -126 0
-179 278 126 0
179 -278 126 0
-179 -278 -126 0
180 279 -127 0
-180 279 127 0
180 -279 127 0
-180 -279 -127 0
181 280 -128 0
-181 280 128 0
181 -280 128 0
-181 -280 -128 0
182 281 -129 0
-182 281 129 0
182 -281 129 0
-182 -281 -129 0
183 282 -130 0
-183 282 130 0
183 -282 130 0
-183 -282 -130 0
184 283 -131 0
-184 283 131 0
184 -283 131 0
-184 -283 -131 0
185 284 -132 0
-185 284 132 0
185 -284 132 0
-185 -284 -132 0
186 285 -133 0
-186 285 133 0
186 -285 133 0
-186 -285 -133 0
187 286 -134 0
-187 286 134 0
187 -286 134 0
-187 -286 -134 0
188 287 -135 0
-188 287 135 0
188 -287 135 0
-188 -287 -135 0
189 288 -136 0
-189 288 136 0
189 -288 136 0
-189 -288 -136 0
190 289 -137 0
-190 289 137 0
190 -289 137 0
-190 -289 -137 0
191 290 -138 0
-191 290 138 0
191 -290 138 0
-191 -290 -138 0
192 291 -139 0
-192 291 139 0
192 -291 139 0
-192 -291 -139 0
193 292 -140 0
-193 292 140 0
193 -292 140 0
-193 -292 -140 0
194 293 -141 0
-194 293 141 0
194 -293 141 0
-194 -293 -141 0
195 294 -142 0
-195 294 142 0
195 -294 142 0
-195 -294 -142 0
196 295 -143 0
-196 295 143 0
196 -295 143 0
-196 -295 -143 0
197 296 -144 0
-197 296 144 0
197 -296 144 0
-197 -296 -144 0
198 297 -145 0
-198 297 145 0
198 -297 145 0
-198 -297 -145 0
199 298 -146 0
-199 298 146 0
199 -298 146 0
-199 -298 -146 0
200 299 -147 0
-200 299 147 0
200 -299 147 0
-200 -299 -147 0
201 300 -148 0
-201 300 148 0
201 -300 148 0
-201 -300 -148 0
202 301 -149 0
-202 301 149 0
202 -301 149 0
-202 -301 -149 0
203 302 -150 0
-203 302 150 0
203 -302 150 0
-203 -302 -150 0
303 -151 0
-303 151 0
